
Starting CP-SAT solver v9.15.6755
Parameters: random_seed: 2026073382 max_time_in_seconds: 2500 log_search_progress: true cp_model_presolve: true linearization_level: 2 num_search_workers: 4 cp_model_probing_level: 2 symmetry_level: 2

Initial satisfaction model '': (model_fingerprint: 0xf5aefe5d159869a5)
#Variables: 724 (598 primary variables)
  - 724 Booleans in [0,1]
#kBoolAnd: 110 (#enforced: 110) (#literals: 330)
#kBoolOr: 110 (#enforced: 110) (#literals: 220)
#kExactlyOne: 87 (#literals: 261)
#kLinear1: 42 (#enforced: 6)
#kLinear2: 336 (#enforced: 336) (#complex_domain: 110)
#kLinear3: 1'600 (#enforced: 6)
#kLinearN: 1'132 (#enforced: 243) (#terms: 9'111)

Starting presolve at 0.00s
  6.64e-04s  0.00e+00d  [DetectDominanceRelations] 
  8.52e-03s  0.00e+00d  [PresolveToFixPoint] #num_loops=3 #num_dual_strengthening=1 
  3.53e-05s  0.00e+00d  [ExtractEncodingFromLinear] #potential_supersets=88 
  2.93e-04s  0.00e+00d  [DetectDuplicateColumns] 
  1.09e-04s  0.00e+00d  [DetectDuplicateConstraints] #duplicates=14 
[Symmetry] Graph for symmetry has 4'813 nodes and 15'284 arcs.
[Symmetry] Symmetry computation done. time: 0.00125067 dtime: 0.00177679
[SAT presolve] num removable Booleans: 220 / 606
[SAT presolve] num trivial clauses: 0
[SAT presolve] [0s] clauses:2'663 literals:7'280 vars:500 one_side_vars:60 simple_definition:1 singleton_clauses:0
[SAT presolve] [0.000229941s] clauses:2'662 literals:7'273 vars:500 one_side_vars:60 simple_definition:1 singleton_clauses:0
[SAT presolve] [0.000731809s] clauses:2'180 literals:6'498 vars:371 one_side_vars:66 simple_definition:71 singleton_clauses:0
  1.47e-04s  0.00e+00d  [DetectDuplicateConstraintsWithDifferentEnforcements] #without_enforcements=8 
  5.21e-03s  2.06e-03d  [Probe] #probed=1'256 #fixed_bools=10 #equiv=8 #new_binary_clauses=723 
  4.58e-04s  2.46e-04d  [MaxClique] Merged 535 constraints with 1'214 literals into 469 constraints with 1'105 literals
  8.24e-04s  0.00e+00d  [DetectDominanceRelations] 
  3.23e-03s  0.00e+00d  [PresolveToFixPoint] #num_loops=1 #num_dual_strengthening=1 
  1.29e-03s  0.00e+00d  [ProcessAtMostOneAndLinear] 
  9.18e-05s  0.00e+00d  [DetectDuplicateConstraints] #duplicates=4 
  7.35e-05s  0.00e+00d  [DetectDuplicateConstraintsWithDifferentEnforcements] 
  3.51e-03s  1.01e-04d  [DetectDominatedLinearConstraints] #relevant_constraints=819 #num_inclusions=501 #num_redundant=6 
  1.21e-04s  0.00e+00d  [DetectDifferentVariables] 
  8.69e-04s  8.23e-05d  [ProcessSetPPC] #relevant_constraints=2'927 #num_inclusions=86 
  3.03e-04s  3.34e-05d  [TransformClausesToExactlyOne] #num_amos=465 #num_clauses=1'654 #num_checked=1'654 
  3.33e-05s  0.00e+00d  [DetectEncodedComplexDomains] 
  3.15e-05s  0.00e+00d  [FindAlmostIdenticalLinearConstraints] 
  9.57e-04s  1.36e-03d  [FindBigAtMostOneAndLinearOverlap] 
  1.62e-03s  1.20e-03d  [FindBigVerticalLinearOverlap] #blocks=5 #saved_nz=309 
  2.95e-04s  5.52e-04d  [FindBigHorizontalLinearOverlap] #linears=450 
  3.21e-04s  2.68e-05d  [MergeClauses] #num_collisions=19 #num_merges=19 #num_saved_literals=92 
  7.76e-04s  0.00e+00d  [DetectDominanceRelations] 
  3.07e-03s  0.00e+00d  [PresolveToFixPoint] #num_loops=2 #num_dual_strengthening=1 
  7.58e-04s  0.00e+00d  [DetectDominanceRelations] 
  2.90e-03s  0.00e+00d  [PresolveToFixPoint] #num_loops=1 #num_dual_strengthening=1 
  1.85e-04s  0.00e+00d  [DetectDuplicateColumns] 
  8.41e-05s  0.00e+00d  [DetectDuplicateConstraints] 
[Symmetry] Graph for symmetry has 4'228 nodes and 13'015 arcs.
[Symmetry] Symmetry computation done. time: 0.00101349 dtime: 0.00129268
[SAT presolve] num removable Booleans: 90 / 458
[SAT presolve] num trivial clauses: 0
[SAT presolve] [0s] clauses:2'069 literals:6'184 vars:431 one_side_vars:133 simple_definition:85 singleton_clauses:0
[SAT presolve] [0.000221642s] clauses:2'069 literals:6'015 vars:431 one_side_vars:179 simple_definition:65 singleton_clauses:0
[SAT presolve] [0.000311615s] clauses:2'062 literals:6'008 vars:428 one_side_vars:180 simple_definition:57 singleton_clauses:0
  1.77e-04s  0.00e+00d  [DetectDuplicateConstraintsWithDifferentEnforcements] 
  5.62e-03s  1.82e-03d  [Probe] #probed=1'246 #new_binary_clauses=482 
  4.09e-04s  2.54e-04d  [MaxClique] Merged 461 constraints with 1'023 literals into 452 constraints with 1'020 literals
  7.68e-04s  0.00e+00d  [DetectDominanceRelations] 
  3.11e-03s  0.00e+00d  [PresolveToFixPoint] #num_loops=1 #num_dual_strengthening=1 
  1.18e-03s  0.00e+00d  [ProcessAtMostOneAndLinear] 
  1.55e-04s  0.00e+00d  [DetectDuplicateConstraints] 
  7.91e-05s  0.00e+00d  [DetectDuplicateConstraintsWithDifferentEnforcements] 
  9.92e-04s  5.25e-05d  [DetectDominatedLinearConstraints] #relevant_constraints=819 #num_inclusions=290 
  1.26e-04s  0.00e+00d  [DetectDifferentVariables] 
  7.61e-04s  6.82e-05d  [ProcessSetPPC] #relevant_constraints=2'961 #num_inclusions=70 
  2.88e-04s  3.26e-05d  [TransformClausesToExactlyOne] #num_amos=451 #num_clauses=1'650 #num_checked=1'650 
  5.05e-05s  0.00e+00d  [DetectEncodedComplexDomains] 
  3.72e-05s  1.80e-07d  [FindAlmostIdenticalLinearConstraints] #num_tested_pairs=2 
  8.19e-04s  9.55e-04d  [FindBigAtMostOneAndLinearOverlap] 
  1.27e-03s  8.40e-04d  [FindBigVerticalLinearOverlap] 
  3.14e-04s  5.52e-04d  [FindBigHorizontalLinearOverlap] #linears=450 
  3.21e-04s  2.59e-05d  [MergeClauses] #num_collisions=72 #num_merges=72 #num_saved_literals=216 
  7.87e-04s  0.00e+00d  [DetectDominanceRelations] 
  3.01e-03s  0.00e+00d  [PresolveToFixPoint] #num_loops=1 #num_dual_strengthening=1 
  7.67e-04s  0.00e+00d  [DetectDominanceRelations] 
  2.85e-03s  0.00e+00d  [PresolveToFixPoint] #num_loops=1 #num_dual_strengthening=1 
  1.78e-04s  0.00e+00d  [DetectDuplicateColumns] 
  9.31e-05s  0.00e+00d  [DetectDuplicateConstraints] 
[Symmetry] Graph for symmetry has 4'164 nodes and 12'675 arcs.
[Symmetry] Symmetry computation done. time: 0.000934281 dtime: 0.0012379
[SAT presolve] num removable Booleans: 87 / 455
[SAT presolve] num trivial clauses: 0
[SAT presolve] [0s] clauses:2'049 literals:5'977 vars:428 one_side_vars:181 simple_definition:57 singleton_clauses:0
[SAT presolve] [0.000208713s] clauses:2'049 literals:5'977 vars:428 one_side_vars:181 simple_definition:57 singleton_clauses:0
[SAT presolve] [0.000274928s] clauses:2'049 literals:5'977 vars:428 one_side_vars:181 simple_definition:57 singleton_clauses:0
  2.25e-04s  0.00e+00d  [DetectDuplicateConstraintsWithDifferentEnforcements] 
  5.55e-03s  1.81e-03d  [Probe] #probed=1'246 #new_binary_clauses=482 
  3.97e-04s  2.45e-04d  [MaxClique] 
  8.18e-04s  0.00e+00d  [DetectDominanceRelations] 
  3.11e-03s  0.00e+00d  [PresolveToFixPoint] #num_loops=1 #num_dual_strengthening=1 
  1.18e-03s  0.00e+00d  [ProcessAtMostOneAndLinear] 
  1.34e-04s  0.00e+00d  [DetectDuplicateConstraints] 
  8.78e-05s  0.00e+00d  [DetectDuplicateConstraintsWithDifferentEnforcements] 
  1.00e-03s  5.25e-05d  [DetectDominatedLinearConstraints] #relevant_constraints=819 #num_inclusions=290 
  1.40e-04s  0.00e+00d  [DetectDifferentVariables] 
  7.91e-04s  6.80e-05d  [ProcessSetPPC] #relevant_constraints=2'958 #num_inclusions=67 
  3.09e-04s  3.26e-05d  [TransformClausesToExactlyOne] #num_amos=449 #num_clauses=1'650 #num_checked=1'650 
  6.05e-05s  0.00e+00d  [DetectEncodedComplexDomains] 
  4.73e-05s  0.00e+00d  [FindAlmostIdenticalLinearConstraints] 
  8.10e-04s  9.54e-04d  [FindBigAtMostOneAndLinearOverlap] 
  1.27e-03s  8.40e-04d  [FindBigVerticalLinearOverlap] 
  3.15e-04s  5.52e-04d  [FindBigHorizontalLinearOverlap] #linears=450 
  3.51e-04s  2.59e-05d  [MergeClauses] #num_collisions=72 #num_merges=72 #num_saved_literals=216 
  8.61e-04s  0.00e+00d  [DetectDominanceRelations] 
  3.14e-03s  0.00e+00d  [PresolveToFixPoint] #num_loops=1 #num_dual_strengthening=1 
  1.74e-05s  0.00e+00d  [MergeNoOverlap] 
  1.61e-05s  0.00e+00d  [MergeNoOverlap2D] 

Presolve summary:
  - 33 affine relations were detected.
  - rule 'TODO dual: only one blocking constraint?' was applied 776 times.
  - rule 'TODO dual: tighten at most one' was applied 8 times.
  - rule 'TODO linear inclusion: superset is equality' was applied 228 times.
  - rule 'affine: new relation' was applied 33 times.
  - rule 'at_most_one: removed literals' was applied 57 times.
  - rule 'at_most_one: size one' was applied 56 times.
  - rule 'at_most_one: transformed into max clique' was applied 2 times.
  - rule 'bool_or: implications' was applied 68 times.
  - rule 'bool_or: only one literal' was applied 12 times.
  - rule 'bool_or: removed enforcement literal' was applied 557 times.
  - rule 'deductions: 676 stored' was applied 1 time.
  - rule 'duplicate: merged rhs of linear constraint' was applied 17 times.
  - rule 'duplicate: removed constraint' was applied 18 times.
  - rule 'duplicate: removed enforced constraint' was applied 8 times.
  - rule 'enforcement: false literal' was applied 47 times.
  - rule 'enforcement: true literal' was applied 16 times.
  - rule 'exactly_one: removed literals' was applied 28 times.
  - rule 'exactly_one: satisfied' was applied 13 times.
  - rule 'exactly_one: singleton' was applied 3 times.
  - rule 'exactly_one: size two' was applied 25 times.
  - rule 'exactly_one: x and not(x)' was applied 6 times.
  - rule 'incompatible linear: add implication' was applied 111 times.
  - rule 'linear + amo: empty after processing' was applied 5 times.
  - rule 'linear + amo: extracted enforcement literal' was applied 46 times.
  - rule 'linear + amo: trivial linear constraint' was applied 1 time.
  - rule 'linear inclusion: redundant containing constraint' was applied 2 times.
  - rule 'linear inclusion: redundant included constraint' was applied 3 times.
  - rule 'linear inclusion: sparsify superset' was applied 1 time.
  - rule 'linear matrix: common vertical rectangle' was applied 5 times.
  - rule 'linear1: x in domain' was applied 36 times.
  - rule 'linear2: convert ax + by != cte to clauses' was applied 260 times.
  - rule 'linear2: convert implied ax + by == cte to clauses' was applied 114 times.
  - rule 'linear2: implied ax + by = cte has only one solution' was applied 8 times.
  - rule 'linear: always true' was applied 413 times.
  - rule 'linear: coefficient strengthening by increasing it' was applied 2 times.
  - rule 'linear: empty' was applied 1 time.
  - rule 'linear: extracted at most one (max)' was applied 1 time.
  - rule 'linear: fixed or dup variables' was applied 879 times.
  - rule 'linear: negative clause' was applied 1'288 times.
  - rule 'linear: negative reified and' was applied 68 times.
  - rule 'linear: never in domain' was applied 5 times.
  - rule 'linear: positive at most one' was applied 40 times.
  - rule 'linear: positive equal one' was applied 1 time.
  - rule 'linear: reduced variable domains' was applied 6 times.
  - rule 'linear: remapped using affine relations' was applied 22 times.
  - rule 'presolve: 101 unused variables removed.' was applied 1 time.
  - rule 'presolve: iteration' was applied 3 times.
  - rule 'probing: bool_or reduced to implication' was applied 32 times.
  - rule 'probing: simplified clauses' was applied 19 times.
  - rule 'setppc: bool_or in at_most_one' was applied 7 times.
  - rule 'setppc: exactly_one included in linear' was applied 1 time.
  - rule 'setppc: reduced linear coefficients' was applied 1 time.
  - rule 'setppc: removed dominated constraints' was applied 78 times.

Presolved satisfaction model '': (model_fingerprint: 0xd7dd8f7d3be505df)
#Variables: 460 (397 primary variables)
  - 455 Booleans in [0,1]
  - 4 in [0,2]
  - 1 in [0,9]
#kAtMostOne: 50 (#literals: 201)
#kBoolAnd: 247 (#enforced: 247) (#literals: 646)
#kBoolAndClauses: 72 (#enforced: 72 #multi: 72) (#literals: 360)
#kBoolOr: 1'506 (#literals: 4'603)
#kExactlyOne: 46 (#literals: 187)
#kLinear3: 6 (#enforced: 4)
#kLinearN: 813 (#enforced: 114) (#terms: 5'448)
[Symmetry] Graph for symmetry has 3'895 nodes and 12'675 arcs.
[Symmetry] Symmetry computation done. time: 0.000827433 dtime: 0.00122176

Preloading model.
#Model   0.10s var:460/460 constraints:2740/2740

Starting search at 0.10s with 4 workers.
3 full problem subsolvers: [default_lp, max_lp, no_lp]
1 first solution subsolver: [fj]
2 interleaved subsolvers: [feasibility_pump, rins/rens]
2 helper subsolvers: [neighborhood_helper, synchronization_agent]

#Model  78.86s var:459/460 constraints:2722/2740
#Model  95.54s var:458/460 constraints:2720/2740
#Model 104.60s var:457/460 constraints:2718/2740
#Model 1136.31s var:456/460 constraints:2700/2740
#Model 1166.41s var:455/460 constraints:2682/2740
#Model 1193.98s var:454/460 constraints:2662/2740
#Model 1251.77s var:453/460 constraints:2641/2740
#Model 1276.26s var:452/460 constraints:2622/2740
#Model 1283.58s var:451/460 constraints:2603/2740
#Model 1286.38s var:448/460 constraints:2568/2740
#Model 1287.60s var:447/460 constraints:2549/2740
#Model 1290.33s var:438/460 constraints:2441/2740
#Model 1290.75s var:437/460 constraints:2423/2740
#Done  1290.99s no_lp

Task timing                   n [     min,      max]      avg      dev     time         n [     min,      max]      avg      dev    dtime
        'default_lp':         1 [  21.52m,   21.52m]   21.52m   0.00ns   21.52m         2 [  1.92ms,   21.27m]   10.63m   10.63m   21.27m
  'feasibility_pump':      6400 [976.91us, 117.63ms]   1.57ms   1.48ms   10.03s      6399 [274.69us,  99.05ms] 292.58us   1.23ms    1.87s
                'fj':      4773 [ 73.52ms, 170.88ms] 134.10ms   7.32ms   10.67m      4773 [ 47.11ms, 100.12ms] 100.01ms 765.89us    7.96m
            'max_lp':         1 [  21.52m,   21.52m]   21.52m   0.00ns   21.52m         2 [ 88.90ms,   28.02m]   14.01m   14.01m   28.02m
             'no_lp':         1 [  21.51m,   21.51m]   21.51m   0.00ns   21.51m         2 [  1.64ms,   40.74m]   20.37m   20.37m   40.74m
         'rins/rens':      5684 [ 19.54ms, 179.92ms] 112.60ms  43.66ms   10.67m      5684 [169.66us, 100.29ms]  67.63ms  37.68ms    6.41m

Search stats     Bools   Conflicts    Branches  Restarts  BacktrackToRoot   Backtrack     BoolPropag  IntegerPropag
  'default_lp':    455     129'143   5'724'481       658          879'891   1'234'328     56'529'428     67'867'668
      'max_lp':    455      49'473   8'782'634       341        1'321'354   1'662'760     82'499'629    108'381'528
       'no_lp':    455  13'084'699  18'333'075    47'036          424'526  13'463'176  1'070'439'234    275'151'968

SAT formula      Fixed  Equiv  Total  VarLeft  BinaryClauses  PermanentClauses  TemporaryClauses
  'default_lp':      9      2    455      444          2'312            24'105             2'722
      'max_lp':      8      2    455      445          2'296            24'811             3'127
       'no_lp':    214      4    455      237          3'066            30'796             2'036

SAT stats        ClassicMinim   LitRemoved  LitRemovedBinary   LitLearned  LitForgotten   Subsumed
  'default_lp':       110'851    1'186'512           919'530    3'060'793     1'720'347     53'908
      'max_lp':        40'722      366'063           330'746      962'807       348'753     23'792
       'no_lp':    11'701'483  173'472'517        97'276'950  297'473'609   233'936'172  3'581'567

Vivification       Clauses  Decisions  LitTrue  Subsumed  LitRemoved  DecisionReused  Conflicts
  'default_lp':    940'055  5'406'692        3    17'770     168'415         294'224      1'828
      'max_lp':  1'394'153  8'503'814        0    18'285     170'938         362'980      1'691
       'no_lp':    332'576  2'773'258       22    23'504     303'526          90'142      1'975

Clause deletion    at_true  l_and_not(l)  to_binary  sub_conflict  sub_extra  sub_decisions  sub_eager  sub_vivify  sub_probing  sub_inpro  blocked  eliminated  forgotten    promoted   conflicts
    'default_lp':    9'670             0         14        52'702        367          1'578      1'206      17'770        6'493     17'442        0           0     53'469     242'627     129'143
        'max_lp':    7'715             0         10        23'542        119            462        250      18'285        6'542     11'362        0           0     11'944      79'157      49'473
         'no_lp':   59'158            11         83     3'512'991     24'235        131'953     68'576      23'504       20'901    145'400        0           0  9'068'732  29'581'523  13'084'699

Lp stats         Component  Iterations  AddedCuts  OPTIMAL  DUAL_F.  DUAL_U.
  'default_lp':          1  15'477'488     44'471  164'439        0   91'757
      'max_lp':          1   7'721'099     39'098   17'117   24'097   16'001

Lp dimension        Final dimension of first component
  'default_lp':    302 rows, 330 columns, 2393 entries
      'max_lp':  1342 rows, 460 columns, 10791 entries

Lp debug         CutPropag  CutEqPropag  Adjust  Overflow        Bad  BadScaling
  'default_lp':          0            9  91'755         0  1'424'868           0
      'max_lp':          0          135  15'999         0  1'133'692           0

Lp pool          Constraints  Updates  Simplif  Merged  Shortened  Split  Strengthened      Cuts/Call
  'default_lp':       10'247    9'899   16'767       0     16'788  1'519             0  44'471/70'995
      'max_lp':       12'142   12'764    8'788       0      8'670  2'056         1'312  39'098/66'563

Lp Cut            default_lp  max_lp
          CG_FF:         593     112
           CG_K:         266      27
          CG_KL:         259       4
           CG_R:         647      74
          CG_RB:           1       6
         CG_RBP:           -       1
         Clique:           -     135
             IB:          35      11
       MIR_1_FF:         312     566
        MIR_1_K:          82       8
       MIR_1_KL:         229       7
        MIR_1_R:         286     160
       MIR_1_RB:           2       5
      MIR_1_RBP:           -       1
      MIR_1_RLT:           -   5'053
       MIR_2_FF:         208     383
        MIR_2_K:          41      41
       MIR_2_KL:         135      18
        MIR_2_R:         293     231
       MIR_2_RB:           -       5
       MIR_3_FF:         130      95
        MIR_3_K:          25       7
       MIR_3_KL:          60       5
        MIR_3_R:         171      76
       MIR_3_RB:           2       6
      MIR_3_RBP:           1       1
       MIR_4_FF:          41      26
        MIR_4_K:           5       5
       MIR_4_KL:          11       -
        MIR_4_R:         107      60
       MIR_4_RB:           2       7
      MIR_4_RBP:           1       3
       MIR_5_FF:          10       8
        MIR_5_K:           3       -
       MIR_5_KL:           4       -
        MIR_5_R:          87      73
       MIR_5_RB:           -       8
      MIR_5_RBP:           -       1
       MIR_6_FF:           5       5
        MIR_6_K:           1       1
       MIR_6_KL:           1       -
        MIR_6_R:          52      50
       MIR_6_RB:           2       5
   ZERO_HALF_FF:         192     432
    ZERO_HALF_K:          43      16
   ZERO_HALF_KL:          44       6
    ZERO_HALF_R:      39'997  31'311
   ZERO_HALF_RB:           1       1
  ZERO_HALF_RBP:          84      42

LNS stats       Improv/Calls  Closed  Difficulty  TimeLimit
  'rins/rens':     5684/5684     50%    8.14e-01       0.10

LS stats                                    Batches  Restarts/Perturbs    LinMoves   GenMoves  CompoundMoves  Bactracks  WeightUpdates  ScoreComputed
                             'fj_restart':      258                 79   6'851'141          0              0          0      6'086'147     10'953'562
                    'fj_restart_compound':      331                 69           0  3'474'504        183'041  1'645'580          8'784     60'015'339
                'fj_restart_compound_obj':      388                 71           0  4'085'345        196'149  1'944'478         11'030     70'553'706
            'fj_restart_compound_perturb':      229                 66           0  2'357'215        145'897  1'105'515          5'866     41'478'724
        'fj_restart_compound_perturb_obj':      196                 67           0  2'011'330        148'404    931'338          4'509     35'351'134
                       'fj_restart_decay':      338                 82   9'944'912          0              0          0        459'493      6'636'539
              'fj_restart_decay_compound':      668                 69           0  8'018'565      1'309'320  3'354'447          8'556    122'248'129
          'fj_restart_decay_compound_obj':      267                 80           0  3'005'008        498'537  1'253'055          3'484     48'528'046
      'fj_restart_decay_compound_perturb':      250                 65           0  2'841'189        472'075  1'184'395          3'279     45'526'090
  'fj_restart_decay_compound_perturb_obj':      202                 60           0  2'270'127        374'456    947'730          2'663     36'701'481
                   'fj_restart_decay_obj':      448                 85  13'215'736          0              0          0        609'399      8'789'879
               'fj_restart_decay_perturb':      250                 64   7'370'952          0              0          0        339'792      4'906'144
           'fj_restart_decay_perturb_obj':      257                 78   7'577'917          0              0          0        349'598      5'039'752
                         'fj_restart_obj':      282                 63   7'328'014          0              0          0      6'622'025     11'906'622
                     'fj_restart_perturb':      209                 67   5'335'436          0              0          0      4'834'882      8'989'346
                 'fj_restart_perturb_obj':      200                 71   5'180'451          0              0          0      4'674'530      8'406'780

Solution repositories    Added  Queried  Synchro
    'alternative_path':      0        0        0
      'best_solutions':      0        0        0
   'fj solution hints':  1'128        0    1'128
        'lp solutions':    391    5'684      390
                'pump':      0        0

Improving bounds shared    Num  Sym
            'default_lp':    8    0
                 'no_lp':   92    0

Clauses shared    #Exported  #Imported  #BinaryRead  #BinaryTotal
   'default_lp':      4'544     58'533          464         1'073
       'max_lp':      3'639     58'948          440         1'073
        'no_lp':     59'452      7'641        1'073         1'073

LRAT_status: NA
CpSolverResponse summary:
status: INFEASIBLE
objective: NA
best_bound: NA
integers: 342
booleans: 455
conflicts: 13084699
branches: 18333075
propagations: 1070439234
integer_propagations: 275151968
restarts: 47036
lp_iterations: 0
walltime: 1291.01
usertime: 1291.01
deterministic_time: 6265.1
gap_integral: 0

{
  "board_size": 22,
  "parity_proved": 0,
  "target": 34,
  "child_id": 1282,
  "child_count": 2640,
  "partition": "unknown_pair_x_diag_plus_twos_x_diag_minus_twos",
  "build_seconds": 0.07478165626525879,
  "workers": 4,
  "requested_seed": 2026073382,
  "effective_seed": 2026073382,
  "main_diagonal_pair": [
    3,
    8
  ],
  "pair_index": 61,
  "diag_plus_twos": 16,
  "diag_minus_twos": 16,
  "pair_excess": 22,
  "residual_certificate_slack": 90,
  "analytic_minimum_line_defect": 24,
  "analytic_defect_details": {
    "row_costs": {
      "12": 6,
      "13": 3,
      "14": 0,
      "15": 0,
      "16": 0,
      "17": 0
    },
    "column_costs": {
      "12": 6,
      "13": 3,
      "14": 0,
      "15": 0,
      "16": 0,
      "17": 0
    },
    "plus_cost": 24,
    "minus_cost": 0,
    "row_column_minimum": 0
  },
  "maximal_line_constraints": 2455,
  "analytic_infeasible": false,
  "allowed_points": 242,
  "status": "INFEASIBLE",
  "proof_method": "cp_sat_all_lines_with_certificate_profile_cuts",
  "elapsed_seconds": 1291.0105154514313,
  "branches": 18333075,
  "conflicts": 13084699
}
